TOUR_SECTION
1
71
78
84
49
156
191
175
112
54
6
97
169
53
122
142
25
171
145
179
19
103
140
24
135
64
89
162
110
10
166
151
33
46
58
17
118
138
75
77
107
199
184
43
37
12
100
187
28
16
198
27
161
164
47
176
4
63
193
144
143
38
101
22
3
190
45
35
11
132
189
155
51
196
13
146
41
116
91
72
136
153
73
61
180
121
87
152
40
15
92
195
197
32
83
133
159
57
67
127
9
82
95
120
185
80
178
174
68
149
85
154
188
7
163
36
150
113
115
160
62
99
96
139
108
158
167
74
123
165
157
94
192
70
114
129
117
183
126
131
69
141
137
130
86
201
173
65
109
55
93
2
23
104
105
148
44
182
52
147
20
31
177
90
21
111
39
88
30
14
18
56
8
59
34
168
134
29
81
66
119
102
98
42
194
79
76
200
170
5
125
124
48
181
186
26
60
50
106
128
172
-1
EOF